(set-info :Origin "This instance was generated by: BanditFuzz-- an RL fuzzer for SMT solvers" )
(set-info :Author "Joe Scott, Fed Mora, Vijay Ganesh" )
(set-info :Contact "Joe Scott, joseph.scott@uwaterloo.ca")
(set-logic QF_BV)
(declare-const bool_0 Bool)
(declare-const bool_1 Bool)
(declare-const bool_2 Bool)
(declare-const bool_3 Bool)
(declare-const bool_4 Bool)
(declare-const bv_0 (_ BitVec 32))
(declare-const bv_1 (_ BitVec 32))
(declare-const bv_2 (_ BitVec 32))
(declare-const bv_3 (_ BitVec 32))
(declare-const bv_4 (_ BitVec 32))
(assert (=> (bvsge (bvsub bv_2 bv_2) (bvlshr bv_4 bv_1)) (bvult (bvashr #x08e1ef93  bv_3) (bvsdiv bv_2 #x0b70402b ))))
(assert (bvule (bvxnor (bvsdiv #x0010fac4  #xc78437c3 ) (bvor #xa8fe4462  bv_4)) (bvxnor (bvmul #x2ada8c89  bv_2) (bvsdiv #xed882de0  #x8e1ad934 ))))
(assert (bvugt (bvudiv (bvnor bv_0 bv_1) (bvnand #xf62b0f54  bv_1)) (bvsub (bvnand bv_3 bv_0) (bvand #x839eee9d  bv_0))))
(assert (bvule (bvsmod (bvand bv_3 bv_3) (bvsmod bv_1 #xd9175d21 )) (bvand (bvlshr bv_2 #x6227742a ) (bvshl bv_2 #x00b3ac14 ))))
(assert (bvule (bvsmod (bvnand #x951daadf  #x6b23c5b4 ) (bvsmod #xd2bacaa3  bv_0)) (bvor (bvlshr bv_2 bv_0) (bvnand #x963caa31  bv_3))))
(check-sat)
(exit)
